benchmarks_CP/INST_36x36/55/inst36x36_55_74.dzn
S=6;
start=[|
32,	25,	22,	-1,	-1,	24,	15,	31,	2,	18,	-1,	13,	9,	27,	-1,	1,	5,	-1,	17,	8,	29,	-1,	-1,	-1,	-1,	10,	34,	16,	3,	-1,	-1,	35,	12,	28,	26,	20|
5,	15,	12,	35,	-1,	30,	17,	6,	10,	-1,	-1,	20,	21,	-1,	24,	25,	3,	-1,	36,	-1,	-1,	2,	-1,	-1,	26,	29,	-1,	8,	-1,	33,	1,	-1,	7,	32,	-1,	16|
31,	26,	27,	-1,	-1,	-1,	36,	8,	19,	-1,	-1,	-1,	11,	10,	18,	16,	22,	20,	21,	-1,	28,	33,	15,	-1,	-1,	-1,	35,	24,	32,	-1,	3,	-1,	2,	13,	25,	29|
-1,	-1,	4,	-1,	21,	-1,	25,	5,	-1,	32,	26,	-1,	-1,	-1,	14,	-1,	-1,	35,	-1,	16,	31,	-1,	3,	-1,	2,	19,	-1,	-1,	-1,	-1,	8,	17,	34,	18,	-1,	-1|
-1,	-1,	16,	-1,	18,	23,	-1,	-1,	-1,	-1,	34,	-1,	17,	-1,	-1,	30,	31,	-1,	25,	-1,	-1,	35,	-1,	27,	20,	-1,	-1,	4,	-1,	28,	9,	6,	21,	11,	5,	10|
36,	6,	-1,	-1,	-1,	-1,	-1,	-1,	14,	-1,	22,	-1,	-1,	29,	2,	-1,	-1,	-1,	-1,	4,	-1,	5,	20,	1,	18,	25,	7,	-1,	30,	11,	19,	-1,	15,	24,	31,	-1|
-1,	-1,	-1,	10,	1,	15,	22,	-1,	-1,	4,	-1,	-1,	-1,	-1,	29,	35,	34,	-1,	31,	-1,	26,	6,	16,	-1,	-1,	-1,	14,	-1,	-1,	-1,	7,	-1,	-1,	-1,	-1,	-1|
-1,	-1,	2,	12,	4,	18,	30,	7,	-1,	-1,	-1,	-1,	27,	-1,	23,	-1,	9,	28,	-1,	29,	35,	8,	32,	21,	-1,	-1,	19,	-1,	34,	36,	-1,	20,	-1,	16,	10,	6|
27,	23,	7,	9,	-1,	31,	19,	-1,	29,	25,	-1,	34,	26,	-1,	10,	-1,	18,	17,	-1,	13,	-1,	-1,	22,	-1,	-1,	-1,	-1,	-1,	-1,	-1,	-1,	-1,	8,	5,	35,	32|
14,	-1,	11,	-1,	6,	-1,	-1,	-1,	32,	31,	-1,	36,	15,	-1,	-1,	-1,	-1,	30,	27,	-1,	-1,	-1,	12,	20,	22,	-1,	-1,	26,	29,	24,	21,	34,	-1,	17,	-1,	-1|
17,	-1,	26,	-1,	36,	32,	-1,	10,	6,	-1,	15,	-1,	-1,	-1,	-1,	-1,	-1,	21,	-1,	-1,	3,	-1,	-1,	-1,	-1,	-1,	25,	28,	-1,	-1,	-1,	22,	14,	30,	-1,	-1|
-1,	24,	-1,	-1,	-1,	35,	-1,	20,	8,	-1,	21,	-1,	22,	-1,	-1,	6,	13,	1,	-1,	18,	-1,	-1,	5,	-1,	31,	30,	-1,	10,	15,	7,	-1,	-1,	27,	-1,	28,	-1|
7,	8,	20,	-1,	22,	-1,	24,	12,	34,	-1,	30,	23,	14,	-1,	-1,	9,	-1,	13,	-1,	-1,	-1,	-1,	21,	19,	35,	-1,	-1,	31,	26,	-1,	18,	36,	-1,	1,	-1,	2|
-1,	-1,	-1,	-1,	-1,	3,	31,	19,	33,	-1,	32,	-1,	-1,	34,	-1,	-1,	23,	25,	-1,	12,	4,	27,	-1,	-1,	-1,	-1,	29,	15,	21,	-1,	20,	8,	22,	-1,	16,	-1|
18,	29,	5,	-1,	26,	2,	28,	-1,	11,	-1,	17,	4,	-1,	6,	-1,	-1,	33,	12,	35,	22,	-1,	1,	-1,	-1,	-1,	-1,	23,	25,	19,	-1,	-1,	9,	10,	21,	34,	-1|
10,	-1,	-1,	-1,	35,	6,	27,	-1,	20,	-1,	25,	-1,	4,	-1,	-1,	-1,	1,	26,	9,	36,	8,	3,	34,	11,	-1,	12,	-1,	32,	-1,	-1,	-1,	-1,	23,	15,	-1,	5|
-1,	31,	-1,	17,	-1,	34,	-1,	26,	36,	9,	-1,	-1,	35,	-1,	21,	-1,	10,	-1,	-1,	15,	13,	-1,	14,	-1,	33,	22,	-1,	-1,	-1,	-1,	11,	-1,	30,	-1,	-1,	-1|
9,	32,	25,	27,	28,	21,	-1,	14,	22,	-1,	-1,	8,	-1,	5,	31,	-1,	-1,	16,	7,	33,	-1,	29,	-1,	-1,	-1,	13,	-1,	34,	6,	3,	-1,	24,	-1,	-1,	19,	4|
-1,	-1,	21,	-1,	25,	27,	35,	2,	3,	-1,	20,	-1,	33,	-1,	8,	15,	6,	4,	30,	-1,	-1,	24,	9,	28,	34,	-1,	22,	-1,	31,	13,	14,	29,	16,	-1,	32,	26|
30,	-1,	-1,	-1,	-1,	-1,	-1,	25,	4,	-1,	27,	6,	20,	9,	7,	11,	-1,	-1,	-1,	10,	15,	22,	35,	18,	17,	36,	28,	-1,	33,	-1,	24,	-1,	31,	-1,	-1,	-1|
4,	-1,	31,	23,	-1,	11,	13,	15,	-1,	30,	-1,	-1,	-1,	1,	-1,	-1,	-1,	-1,	-1,	25,	-1,	20,	36,	26,	10,	32,	27,	12,	-1,	-1,	6,	-1,	5,	9,	-1,	35|
-1,	-1,	-1,	-1,	-1,	19,	-1,	-1,	-1,	-1,	9,	-1,	-1,	-1,	35,	10,	-1,	-1,	6,	-1,	-1,	14,	8,	-1,	7,	3,	1,	-1,	5,	-1,	17,	11,	4,	22,	-1,	15|
-1,	10,	-1,	-1,	-1,	-1,	-1,	11,	-1,	-1,	24,	-1,	18,	31,	-1,	-1,	12,	36,	-1,	-1,	-1,	32,	1,	29,	-1,	-1,	-1,	19,	25,	-1,	-1,	23,	-1,	-1,	27,	7|
-1,	13,	8,	-1,	24,	-1,	16,	23,	1,	29,	12,	32,	-1,	30,	-1,	26,	14,	-1,	-1,	17,	5,	31,	-1,	33,	6,	11,	-1,	-1,	-1,	-1,	-1,	-1,	18,	10,	3,	19|
-1,	-1,	1,	5,	2,	4,	6,	22,	7,	17,	-1,	15,	-1,	18,	9,	-1,	-1,	-1,	11,	-1,	-1,	23,	27,	12,	25,	-1,	-1,	-1,	-1,	10,	-1,	19,	-1,	14,	-1,	-1|
-1,	27,	6,	30,	-1,	-1,	10,	32,	-1,	-1,	19,	-1,	-1,	-1,	-1,	7,	21,	2,	5,	-1,	17,	4,	-1,	36,	14,	31,	-1,	11,	18,	23,	35,	-1,	-1,	33,	-1,	22|
35,	7,	-1,	-1,	23,	-1,	4,	3,	12,	24,	36,	18,	-1,	-1,	17,	-1,	16,	-1,	34,	-1,	-1,	30,	-1,	15,	-1,	5,	20,	-1,	9,	-1,	10,	-1,	-1,	8,	11,	28|
16,	-1,	17,	-1,	10,	29,	-1,	27,	13,	34,	11,	-1,	12,	-1,	36,	32,	4,	-1,	18,	2,	-1,	19,	-1,	14,	28,	-1,	3,	35,	-1,	1,	26,	5,	-1,	7,	-1,	31|
-1,	-1,	15,	-1,	31,	-1,	-1,	30,	9,	28,	-1,	25,	-1,	35,	-1,	34,	27,	29,	-1,	26,	22,	13,	33,	8,	-1,	6,	-1,	7,	-1,	-1,	16,	21,	-1,	-1,	24,	36|
11,	-1,	-1,	-1,	-1,	36,	-1,	-1,	23,	-1,	31,	29,	5,	20,	-1,	-1,	-1,	33,	32,	28,	7,	16,	10,	3,	-1,	-1,	-1,	-1,	-1,	-1,	4,	13,	6,	27,	18,	17|
-1,	12,	32,	21,	-1,	14,	-1,	-1,	15,	27,	10,	-1,	-1,	-1,	22,	36,	-1,	-1,	-1,	3,	-1,	-1,	-1,	5,	4,	-1,	-1,	-1,	16,	6,	25,	28,	-1,	35,	-1,	-1|
-1,	4,	29,	22,	27,	17,	20,	21,	25,	33,	-1,	-1,	-1,	-1,	-1,	23,	2,	-1,	8,	-1,	12,	26,	-1,	-1,	-1,	-1,	32,	-1,	10,	18,	-1,	-1,	-1,	-1,	-1,	9|
1,	35,	-1,	-1,	-1,	-1,	3,	4,	-1,	6,	-1,	2,	-1,	-1,	27,	-1,	-1,	-1,	33,	-1,	16,	-1,	11,	32,	-1,	34,	24,	-1,	-1,	25,	22,	30,	-1,	19,	-1,	23|
-1,	-1,	10,	28,	8,	25,	-1,	36,	-1,	23,	-1,	-1,	30,	-1,	-1,	17,	-1,	18,	22,	-1,	19,	9,	31,	34,	29,	-1,	-1,	5,	1,	20,	-1,	3,	33,	4,	-1,	21|
-1,	36,	-1,	-1,	-1,	16,	-1,	-1,	30,	22,	-1,	1,	25,	14,	20,	4,	32,	11,	10,	6,	-1,	-1,	-1,	24,	9,	35,	33,	-1,	17,	31,	34,	7,	-1,	-1,	2,	8|
-1,	18,	13,	6,	30,	-1,	-1,	9,	31,	8,	14,	19,	-1,	-1,	26,	-1,	-1,	-1,	-1,	-1,	25,	36,	-1,	-1,	-1,	-1,	21,	22,	11,	2,	15,	10,	-1,	29,	-1,	-1|];
