benchmarks/INST_36x36/55/inst36x36_55_74.txt
6
1
32	25	22	14	-1	24	15	-1	2	18	33	13	-1	-1	4	-1	5	6	-1	-1	29	-1	-1	30	23	-1	34	-1	3	21	-1	-1	12	28	-1	-1
5	15	12	35	-1	30	-1	-1	10	11	4	-1	21	-1	24	-1	-1	19	36	34	9	2	18	-1	26	29	31	-1	27	33	-1	14	7	32	23	-1
31	26	27	34	-1	9	36	8	-1	-1	23	30	11	-1	-1	16	-1	-1	-1	7	-1	-1	-1	-1	5	-1	-1	-1	-1	-1	-1	-1	-1	13	25	29
29	20	-1	11	21	1	-1	-1	28	-1	26	-1	23	-1	14	33	-1	-1	24	16	-1	-1	3	10	-1	19	6	-1	-1	-1	-1	17	-1	18	22	30
-1	19	-1	-1	18	23	7	29	24	-1	-1	3	17	-1	15	-1	31	8	25	-1	-1	35	-1	-1	-1	-1	36	4	-1	-1	-1	6	-1	-1	5	-1
36	-1	28	8	-1	-1	-1	-1	-1	-1	22	16	34	29	-1	-1	26	-1	13	4	-1	-1	-1	1	-1	25	7	-1	-1	11	-1	27	-1	24	31	33
-1	-1	-1	10	1	15	22	17	-1	-1	-1	-1	-1	-1	29	-1	-1	-1	31	-1	-1	-1	16	-1	-1	-1	14	20	-1	-1	-1	-1	-1	2	-1	-1
22	33	-1	12	4	18	-1	-1	5	26	13	11	27	25	-1	-1	9	-1	-1	-1	35	8	32	-1	-1	-1	-1	3	-1	36	31	-1	24	-1	-1	6
27	23	-1	-1	-1	31	19	-1	29	25	1	-1	26	36	-1	3	18	17	14	-1	30	28	22	4	21	-1	11	-1	-1	16	-1	15	8	-1	35	-1
-1	3	11	-1	-1	8	23	28	32	31	-1	-1	-1	-1	16	-1	7	-1	27	1	-1	10	-1	-1	22	18	5	-1	29	-1	21	-1	-1	17	9	-1
17	5	26	19	36	32	18	10	6	-1	15	-1	24	-1	-1	-1	-1	-1	-1	11	3	34	23	7	-1	27	25	-1	-1	-1	29	22	14	30	4	-1
25	24	-1	-1	16	35	-1	-1	-1	2	21	14	22	32	12	-1	13	1	19	-1	-1	-1	-1	9	-1	-1	-1	10	15	7	23	26	27	-1	28	11
7	8	20	4	-1	-1	24	12	-1	-1	30	-1	14	15	-1	-1	-1	-1	-1	5	-1	-1	21	-1	-1	-1	-1	31	26	27	-1	36	-1	-1	17	2
13	-1	36	1	11	-1	-1	19	33	-1	-1	-1	7	34	-1	-1	-1	-1	-1	-1	4	-1	-1	2	24	-1	-1	15	-1	5	-1	-1	-1	6	16	-1
18	29	-1	-1	-1	2	-1	16	-1	7	17	4	-1	6	30	27	33	-1	35	22	32	1	-1	31	36	-1	-1	25	19	14	13	-1	10	21	-1	3
10	-1	14	24	35	6	-1	18	20	-1	25	-1	4	-1	19	-1	-1	26	9	36	8	-1	-1	11	30	-1	-1	32	-1	-1	28	-1	23	15	33	5
23	-1	19	-1	12	34	29	26	36	9	-1	-1	35	-1	21	-1	10	3	20	-1	13	-1	14	-1	-1	22	-1	-1	28	-1	-1	32	30	-1	7	27
9	32	25	27	28	-1	-1	14	22	15	2	-1	36	5	31	-1	17	16	7	33	-1	-1	-1	-1	-1	13	18	-1	6	-1	12	-1	35	-1	-1	-1
12	-1	21	-1	25	27	-1	-1	-1	-1	-1	-1	-1	17	-1	15	-1	4	30	19	-1	-1	9	-1	34	-1	-1	18	-1	-1	14	29	16	36	32	26
30	-1	-1	16	32	-1	8	-1	-1	19	-1	-1	-1	-1	7	11	-1	23	12	-1	15	22	-1	-1	-1	-1	28	14	-1	-1	-1	-1	-1	-1	21	13
4	17	31	-1	14	11	-1	-1	-1	-1	28	-1	2	1	-1	-1	-1	22	-1	25	34	20	-1	-1	10	-1	27	12	24	-1	6	-1	-1	9	8	-1
-1	-1	-1	-1	29	-1	-1	33	21	36	9	-1	32	-1	-1	-1	25	-1	6	23	-1	-1	-1	13	-1	-1	1	-1	5	30	17	11	4	-1	12	-1
-1	10	35	33	9	-1	34	11	17	-1	24	-1	-1	-1	5	13	12	-1	-1	21	2	32	-1	-1	16	-1	-1	-1	-1	8	-1	23	28	20	27	-1
-1	13	-1	-1	24	22	-1	-1	-1	-1	12	-1	28	-1	-1	26	14	-1	4	-1	5	31	7	-1	-1	-1	-1	21	20	-1	-1	-1	-1	10	3	19
3	21	1	-1	2	4	-1	-1	-1	17	8	15	-1	18	-1	28	30	-1	11	-1	24	-1	27	12	25	-1	-1	-1	36	10	-1	-1	20	-1	29	34
-1	-1	6	-1	34	28	-1	-1	16	-1	-1	26	3	24	-1	-1	-1	-1	5	9	-1	-1	29	-1	-1	31	13	11	-1	-1	35	-1	-1	33	-1	22
-1	7	-1	32	23	-1	4	3	-1	24	-1	-1	-1	26	17	-1	-1	14	34	-1	-1	-1	-1	15	27	-1	20	29	-1	-1	10	-1	1	-1	11	-1
-1	22	-1	25	-1	-1	21	27	13	34	11	33	12	23	36	32	4	15	18	2	-1	19	6	-1	28	24	3	35	8	-1	26	5	9	-1	30	31
20	-1	15	18	31	12	-1	-1	-1	-1	-1	25	10	35	-1	34	27	29	1	26	22	13	33	8	32	-1	17	-1	-1	-1	16	21	3	23	-1	-1
11	-1	-1	26	-1	36	14	1	-1	35	31	-1	5	20	25	-1	-1	33	-1	28	-1	16	10	-1	-1	-1	12	30	2	34	4	13	-1	-1	-1	17
26	12	-1	21	-1	14	-1	-1	-1	27	-1	17	31	19	-1	-1	24	9	-1	3	1	7	-1	-1	-1	8	-1	23	16	6	25	28	13	-1	-1	-1
24	4	-1	-1	27	17	20	21	25	33	7	28	-1	-1	6	-1	2	34	-1	30	-1	-1	-1	-1	19	15	-1	36	-1	18	-1	-1	-1	31	-1	9
1	-1	9	-1	-1	7	3	-1	26	6	-1	2	-1	21	27	-1	28	-1	33	20	-1	15	11	32	12	-1	-1	-1	14	25	-1	30	17	-1	-1	23
-1	-1	-1	28	8	-1	-1	36	35	-1	-1	24	30	12	13	-1	15	-1	22	-1	-1	9	-1	-1	-1	-1	-1	5	1	20	27	-1	33	-1	6	21
-1	36	23	3	-1	16	5	-1	30	22	29	1	25	14	-1	4	32	-1	10	6	18	-1	28	24	-1	35	33	-1	17	-1	-1	7	-1	12	-1	8
-1	18	13	-1	-1	-1	12	-1	-1	-1	14	19	-1	33	-1	5	-1	7	23	27	25	36	4	17	3	28	21	22	11	2	15	-1	32	29	-1	-1
